NAME: random_points
TYPE: TSP
DIMENSION: 20
EDGE_WEIGHT_TYPE: EUC_2D
NODE_COORD_SECTION
1 73 48
2 41 19
3 28 28
4 2 30
5 52 75
6 47 99
7 22 100
8 95 73
9 73 50
10 30 0
11 0 42
12 48 38
13 31 6
14 70 63
15 90 76
16 88 56
17 76 65
18 9 50
19 4 90
20 96 39
EOF
